Route #1: 1 5 4 15 20 19 6 17 10 25 1 
Route #2: 1 13 2 7 18 1 1 
Route #3: 1 3 31 32 21 11 29 1 
Route #4: 1 14 28 16 30 27 23 1 
Route #5: 1 9 8 22 26 24 1 
Route #6: 1 12 1 

Cost 1044.49
Time 0.1643


 * Another infos *

 Iterations: 33 Time: 0.1643 sec - 0.0027 min - 0.0000 horas
0.0000 h 0.0027 min
Problem dimension: 33
